set VV := 0 1 2 3 4 5 6 7 8 9 10 11 12 13 14 15 16 17 18 19 20 21 22 23 24 25 26 27 28 29 30 31 32 33 34 35 36 37 38 39 40 41 42 43 ;
set VS := 0 1 2 3 4 5 6 7 8 9 10 11 12 13 14 15 16 17 18 19 20 21 22 23 24 25 26 27 28 29 30 31 32 33 34 35 36 37 38 39 40 41 42 43 44 45 46 47 48 49 50 51 52 53 54 55 56 57 58 59 60 61 62 63 64 65 66 67 68 69 70 71 72 73 74 75 76 77 78 79 80 81 82 83 84 85 86 87 88 89 90 91 92 ;
param cv := 
0 14
1 15
2 16
3 14
4 25
5 24
6 23
7 17
8 12
9 22
10 12
11 15
12 17
13 17
14 24
15 12
16 17
17 12
18 12
19 10
20 22
21 16
22 18
23 16
24 16
25 19
26 24
27 22
28 10
29 17
30 19
31 15
32 22
33 23
34 17
35 23
36 24
37 12
38 12
39 19
40 18
41 25
42 10
43 21
;
param cs := 
0 39
1 31
2 39
3 40
4 31
5 30
6 33
7 24
8 32
9 25
10 29
11 21
12 29
13 26
14 31
15 23
16 26
17 37
18 36
19 40
20 39
21 32
22 37
23 40
24 40
25 29
26 36
27 31
28 32
29 25
30 38
31 24
32 34
33 32
34 38
35 27
36 23
37 30
38 40
39 38
40 27
41 39
42 21
43 37
44 28
45 40
46 32
47 29
48 38
49 30
50 38
51 21
52 21
53 20
54 26
55 23
56 34
57 22
58 20
59 21
60 37
61 28
62 26
63 24
64 36
65 35
66 34
67 25
68 36
69 28
70 33
71 25
72 30
73 40
74 20
75 30
76 36
77 27
78 30
79 36
80 32
81 28
82 27
83 25
84 38
85 35
86 35
87 34
88 23
89 39
90 30
91 21
92 27
;
param bv:	 0 1 2 3 4 5 6 7 8 9 10 11 12 13 14 15 16 17 18 19 20 21 22 23 24 25 26 27 28 29 30 31 32 33 34 35 36 37 38 39 40 41 42 43 := 
		0 0 0 0 0 0 0 0 0 0 0 0 0 0 21 0 0 13 0 0 0 0 0 0 0 0 0 0 0 10 13 0 0 20 0 0 0 0 0 0 0 21 0 25 0 
		1 0 0 0 0 0 0 0 0 0 0 0 0 0 17 0 0 0 0 0 0 0 0 0 15 0 0 0 0 0 0 0 10 0 0 0 0 0 0 0 0 0 0 0 23 
		2 0 0 0 11 0 20 0 0 0 0 0 0 0 0 0 0 18 0 12 0 0 0 0 0 0 0 0 0 0 0 0 0 0 0 0 0 0 0 0 0 24 0 0 0 
		3 0 0 0 0 0 0 0 0 0 0 0 16 0 0 0 0 0 10 0 0 0 0 0 0 0 0 20 0 16 0 0 0 0 17 0 0 0 0 0 0 0 21 0 0 
		4 0 0 0 0 0 0 0 0 16 0 0 0 0 0 0 0 0 0 0 18 0 0 0 20 0 0 0 0 0 0 0 0 0 0 0 0 20 0 0 0 0 0 0 0 
		5 0 0 0 0 0 0 0 0 14 0 0 25 0 0 0 0 0 0 0 0 0 0 0 0 0 0 22 0 0 0 0 0 0 0 0 10 0 0 0 0 0 0 24 0 
		6 0 0 0 0 0 0 0 0 0 0 0 0 0 0 0 0 0 0 0 0 0 0 0 0 22 0 0 0 0 0 0 0 0 0 0 0 0 0 0 0 0 0 0 0 
		7 0 0 0 0 0 0 0 0 0 0 0 0 0 0 14 0 0 0 0 0 0 0 0 0 0 0 0 0 0 0 0 0 0 0 0 0 0 0 0 0 0 0 0 0 
		8 0 0 0 0 0 0 0 0 0 0 0 0 0 0 0 0 0 0 0 0 0 0 0 0 0 0 0 0 0 0 0 15 0 12 0 0 0 0 0 0 0 0 0 0 
		9 0 0 0 0 0 0 0 0 0 0 23 0 0 0 0 0 0 0 10 0 0 10 0 0 0 0 0 0 0 0 0 0 24 0 22 0 0 0 0 0 0 0 0 0 
		10 0 0 0 0 0 0 0 0 0 0 0 0 0 0 19 12 0 0 0 0 0 0 0 0 22 0 0 13 0 0 0 0 0 0 0 0 0 0 0 0 0 0 0 0 
		11 0 0 0 0 0 0 0 0 0 0 0 0 0 0 0 0 0 0 0 0 0 0 0 0 0 0 0 0 0 0 23 0 0 0 0 0 0 0 0 0 0 11 0 12 
		12 0 0 0 0 0 0 0 0 0 0 0 0 0 0 16 0 0 0 0 0 0 0 24 0 0 0 0 0 0 0 0 0 0 0 0 0 0 0 0 0 0 0 0 0 
		13 0 0 0 0 0 0 0 0 0 0 0 0 0 0 0 0 0 0 0 0 0 0 0 0 0 0 0 0 0 0 0 0 0 0 0 0 10 12 0 0 0 15 0 25 
		14 0 0 0 0 0 0 0 0 0 0 0 0 0 0 0 0 0 0 0 0 16 0 14 0 0 0 0 0 0 15 0 0 0 0 0 18 0 0 0 0 0 0 0 0 
		15 0 0 0 0 0 0 0 0 0 0 0 0 0 0 0 0 0 0 0 0 0 19 20 0 12 0 0 19 0 0 0 0 0 0 0 0 0 0 0 0 0 0 0 0 
		16 0 0 0 0 0 0 0 0 0 0 0 0 0 0 0 0 0 0 0 0 0 0 0 20 0 0 0 0 0 0 0 0 0 0 0 0 0 0 0 0 0 0 0 0 
		17 0 0 0 0 0 0 0 0 0 0 0 0 0 0 0 0 0 0 0 0 0 0 0 0 16 0 0 0 0 0 0 0 0 0 16 0 0 0 0 0 0 0 0 0 
		18 0 0 0 0 0 0 0 0 0 0 0 0 0 0 0 0 0 0 0 0 0 0 0 0 0 0 0 0 0 0 0 0 0 0 0 0 0 21 0 0 11 0 0 0 
		19 0 0 0 0 0 0 0 0 0 0 0 0 0 0 0 0 0 0 0 0 0 0 0 0 0 0 0 0 0 0 0 0 0 0 0 0 0 0 0 0 0 0 0 0 
		20 0 0 0 0 0 0 0 0 0 0 0 0 0 0 0 0 0 0 0 0 0 12 0 0 0 0 0 25 0 0 0 0 0 0 25 0 0 0 0 0 0 0 0 0 
		21 0 0 0 0 0 0 0 0 0 0 0 0 0 0 0 0 0 0 0 0 0 0 21 0 0 0 0 21 0 0 0 0 0 0 0 0 0 0 0 0 0 0 0 24 
		22 0 0 0 0 0 0 0 0 0 0 0 0 0 0 0 0 0 0 0 0 0 0 0 0 0 0 0 0 0 17 0 0 18 11 0 0 0 0 0 0 0 0 0 0 
		23 0 0 0 0 0 0 0 0 0 0 0 0 0 0 0 0 0 0 0 0 0 0 0 0 0 0 0 0 20 0 0 0 0 0 0 0 0 0 0 0 0 0 0 0 
		24 0 0 0 0 0 0 0 0 0 0 0 0 0 0 0 0 0 0 0 0 0 0 0 0 0 0 0 12 0 0 0 0 0 0 0 0 0 0 0 0 0 0 0 0 
		25 0 0 0 0 0 0 0 0 0 0 0 0 0 0 0 0 0 0 0 0 0 0 0 0 0 0 0 0 0 24 0 0 0 0 23 0 0 0 0 0 0 0 0 0 
		26 0 0 0 0 0 0 0 0 0 0 0 0 0 0 0 0 0 0 0 0 0 0 0 0 0 0 0 0 0 0 0 0 0 0 0 0 0 10 0 0 19 0 0 0 
		27 0 0 0 0 0 0 0 0 0 0 0 0 0 0 0 0 0 0 0 0 0 0 0 0 0 0 0 0 11 16 0 0 0 0 0 0 0 0 0 0 0 0 0 0 
		28 0 0 0 0 0 0 0 0 0 0 0 0 0 0 0 0 0 0 0 0 0 0 0 0 0 0 0 0 0 0 0 0 0 0 0 0 0 0 0 11 0 0 0 0 
		29 0 0 0 0 0 0 0 0 0 0 0 0 0 0 0 0 0 0 0 0 0 0 0 0 0 0 0 0 0 0 0 0 0 0 0 0 0 0 0 0 0 0 0 0 
		30 0 0 0 0 0 0 0 0 0 0 0 0 0 0 0 0 0 0 0 0 0 0 0 0 0 0 0 0 0 0 0 0 0 0 0 0 0 12 0 0 18 0 0 0 
		31 0 0 0 0 0 0 0 0 0 0 0 0 0 0 0 0 0 0 0 0 0 0 0 0 0 0 0 0 0 0 0 0 0 0 0 0 0 0 0 0 0 0 0 0 
		32 0 0 0 0 0 0 0 0 0 0 0 0 0 0 0 0 0 0 0 0 0 0 0 0 0 0 0 0 0 0 0 0 0 0 0 0 0 0 0 22 0 0 0 0 
		33 0 0 0 0 0 0 0 0 0 0 0 0 0 0 0 0 0 0 0 0 0 0 0 0 0 0 0 0 0 0 0 0 0 0 0 0 0 0 0 0 0 0 0 0 
		34 0 0 0 0 0 0 0 0 0 0 0 0 0 0 0 0 0 0 0 0 0 0 0 0 0 0 0 0 0 0 0 0 0 0 0 22 0 0 0 0 0 0 0 15 
		35 0 0 0 0 0 0 0 0 0 0 0 0 0 0 0 0 0 0 0 0 0 0 0 0 0 0 0 0 0 0 0 0 0 0 0 0 0 0 0 0 0 20 0 0 
		36 0 0 0 0 0 0 0 0 0 0 0 0 0 0 0 0 0 0 0 0 0 0 0 0 0 0 0 0 0 0 0 0 0 0 0 0 0 0 0 0 0 0 0 0 
		37 0 0 0 0 0 0 0 0 0 0 0 0 0 0 0 0 0 0 0 0 0 0 0 0 0 0 0 0 0 0 0 0 0 0 0 0 0 0 17 0 0 20 0 0 
		38 0 0 0 0 0 0 0 0 0 0 0 0 0 0 0 0 0 0 0 0 0 0 0 0 0 0 0 0 0 0 0 0 0 0 0 0 0 0 0 0 0 0 0 0 
		39 0 0 0 0 0 0 0 0 0 0 0 0 0 0 0 0 0 0 0 0 0 0 0 0 0 0 0 0 0 0 0 0 0 0 0 0 0 0 0 0 0 0 0 0 
		40 0 0 0 0 0 0 0 0 0 0 0 0 0 0 0 0 0 0 0 0 0 0 0 0 0 0 0 0 0 0 0 0 0 0 0 0 0 0 0 0 0 0 0 0 
		41 0 0 0 0 0 0 0 0 0 0 0 0 0 0 0 0 0 0 0 0 0 0 0 0 0 0 0 0 0 0 0 0 0 0 0 0 0 0 0 0 0 0 17 0 
		42 0 0 0 0 0 0 0 0 0 0 0 0 0 0 0 0 0 0 0 0 0 0 0 0 0 0 0 0 0 0 0 0 0 0 0 0 0 0 0 0 0 0 0 0 
		43 0 0 0 0 0 0 0 0 0 0 0 0 0 0 0 0 0 0 0 0 0 0 0 0 0 0 0 0 0 0 0 0 0 0 0 0 0 0 0 0 0 0 0 0 
;
param bs:	 0 1 2 3 4 5 6 7 8 9 10 11 12 13 14 15 16 17 18 19 20 21 22 23 24 25 26 27 28 29 30 31 32 33 34 35 36 37 38 39 40 41 42 43 44 45 46 47 48 49 50 51 52 53 54 55 56 57 58 59 60 61 62 63 64 65 66 67 68 69 70 71 72 73 74 75 76 77 78 79 80 81 82 83 84 85 86 87 88 89 90 91 92 := 
		0 0 0 0 0 0 0 0 0 0 0 0 0 0 0 0 0 0 0 0 0 0 0 0 0 0 0 0 0 0 0 0 0 0 0 30 0 0 33 0 0 33 0 22 0 0 0 0 39 0 0 0 0 32 0 0 0 0 0 0 0 0 0 0 0 0 0 0 0 0 0 0 0 0 0 34 22 0 0 28 0 0 0 0 24 0 0 0 0 0 0 0 0 0 
		1 0 0 0 0 0 0 0 0 0 0 0 0 0 0 30 0 0 0 0 0 0 0 0 0 0 0 0 0 0 40 0 0 0 0 22 33 21 0 0 0 0 0 0 0 0 0 0 0 0 0 0 0 0 0 0 0 0 0 0 0 0 0 0 22 0 0 0 0 0 34 0 0 0 0 0 0 38 0 0 0 0 36 0 0 0 37 0 0 0 0 0 0 0 
		2 0 0 0 0 0 0 0 0 0 0 0 0 0 0 0 23 0 36 0 40 0 0 0 0 0 0 0 0 0 0 38 37 35 0 0 0 0 0 0 0 0 0 0 0 0 0 0 0 0 0 20 0 0 0 0 0 0 0 0 0 37 0 0 0 0 0 31 0 0 0 0 0 31 0 0 0 29 0 27 0 0 0 0 0 0 0 0 0 0 0 0 0 0 
		3 0 0 0 0 0 0 40 0 0 0 0 0 0 0 0 0 24 0 0 0 0 0 0 0 0 0 0 0 0 0 0 0 0 0 40 0 0 0 0 0 25 0 0 0 0 0 0 0 0 0 0 30 0 0 0 0 0 0 0 35 0 0 0 0 0 0 0 0 0 0 0 0 0 0 0 0 0 0 0 0 0 0 0 30 0 0 0 0 0 0 0 0 0 
		4 0 0 0 0 0 0 36 0 0 28 36 0 40 30 0 0 0 0 0 0 0 0 0 22 0 0 26 0 0 0 0 0 37 0 0 0 0 0 0 0 0 36 0 0 0 0 0 0 0 0 0 0 0 0 0 0 0 0 0 0 0 0 37 0 0 0 0 0 0 0 0 0 0 0 0 0 0 0 0 0 0 0 0 26 0 0 0 0 0 21 0 28 0 
		5 0 0 0 0 0 0 0 34 0 0 0 0 0 0 0 0 0 0 0 30 0 0 0 0 23 0 0 0 0 21 0 0 0 0 0 0 0 0 32 0 0 0 0 0 0 33 0 0 0 0 0 0 0 0 0 0 0 0 0 0 0 0 0 0 30 0 36 0 21 0 0 0 27 0 0 0 29 0 0 0 0 0 23 0 0 0 0 0 0 0 0 0 0 
		6 0 0 0 40 36 0 0 0 0 0 0 0 28 0 0 39 0 0 0 0 26 0 0 33 0 0 0 0 0 0 0 0 0 0 0 0 0 0 0 0 30 0 0 0 0 0 0 0 0 0 0 0 0 31 0 0 0 0 0 0 0 0 40 0 0 0 0 0 0 0 0 0 0 0 0 0 0 0 0 0 0 0 0 0 0 0 0 25 0 0 0 22 0 
		7 0 0 0 0 0 34 0 0 0 0 0 0 0 0 0 0 0 0 0 28 0 0 0 0 0 0 0 0 0 0 0 36 0 0 0 0 0 0 0 0 0 0 0 34 0 0 0 0 0 0 0 0 0 0 0 32 0 0 0 39 0 0 0 0 0 0 0 0 0 0 0 0 0 0 0 21 0 0 0 0 0 0 0 0 0 0 0 0 25 0 0 0 0 
		8 0 0 0 0 0 0 0 0 0 0 0 0 0 0 27 0 0 0 0 0 0 0 36 0 0 0 0 0 0 0 26 0 0 40 0 0 0 0 0 0 0 0 0 0 0 0 0 29 0 0 0 0 0 0 0 0 0 0 0 0 0 0 0 0 0 0 0 0 30 0 0 0 0 0 0 0 0 0 0 0 0 0 0 0 0 0 0 0 0 0 0 0 0 
		9 0 0 0 0 28 0 0 0 0 0 0 23 0 24 40 0 0 0 0 0 29 0 0 34 0 0 0 0 0 0 0 0 0 24 0 0 0 0 0 0 0 0 0 0 20 0 0 0 0 0 0 25 0 0 0 0 0 0 0 0 0 0 0 0 0 25 0 0 0 0 0 0 0 0 0 0 0 0 0 0 28 31 0 0 36 0 0 36 39 0 0 0 0 
		10 0 0 0 0 36 0 0 0 0 0 0 0 0 0 0 0 26 0 0 0 0 30 0 0 0 0 31 20 0 0 0 0 0 0 0 0 0 0 0 0 0 0 0 0 0 39 0 0 0 0 0 0 0 0 0 0 0 0 0 0 0 32 0 0 0 0 0 0 0 35 0 0 0 40 0 0 0 0 0 22 37 0 36 0 0 0 0 0 0 28 28 0 0 
		11 0 0 0 0 0 0 0 0 0 23 0 0 0 0 0 0 0 0 0 0 0 0 0 0 26 0 0 0 0 30 0 0 0 0 0 0 0 0 0 28 0 0 0 0 0 0 21 0 0 33 0 0 30 0 0 0 0 0 0 0 0 0 0 0 0 0 0 34 0 0 0 0 0 0 0 0 0 0 0 0 0 0 0 0 0 0 0 0 0 0 0 0 0 
		12 0 0 0 0 40 0 28 0 0 0 0 0 0 0 0 0 0 31 0 0 0 0 0 0 39 0 0 0 0 28 0 0 0 0 0 0 38 0 0 0 0 0 39 0 33 0 0 0 0 0 0 0 31 0 0 0 37 26 0 0 0 0 0 0 0 0 0 23 21 0 0 0 0 0 0 30 0 0 37 0 0 0 0 0 0 0 0 0 0 0 0 0 0 
		13 0 0 0 0 30 0 0 0 0 24 0 0 0 0 0 0 0 0 0 0 0 0 28 0 0 0 39 0 0 0 0 0 0 0 0 0 30 0 0 0 0 35 0 0 0 0 0 0 20 0 0 0 0 29 30 0 0 0 0 0 0 0 0 0 0 0 0 0 0 0 29 24 0 0 0 0 0 0 0 0 0 0 0 0 0 36 0 0 0 37 0 0 0 
		14 0 30 0 0 0 0 0 0 27 40 0 0 0 0 0 0 0 23 0 0 0 0 0 0 0 0 0 0 0 0 37 0 0 38 0 0 0 0 0 0 0 0 0 0 0 0 0 0 0 0 0 0 0 0 0 0 0 0 0 0 0 0 0 0 0 0 0 0 0 0 0 0 0 0 0 0 0 0 0 0 0 0 0 0 0 0 0 0 0 0 0 0 0 
		15 0 0 23 0 0 0 39 0 0 0 0 0 0 0 0 0 0 34 0 0 0 0 0 0 0 0 0 24 0 0 0 30 0 0 0 0 0 0 0 0 26 25 0 20 0 0 0 0 0 0 35 0 0 0 27 0 0 0 0 37 0 0 0 0 0 0 20 25 0 0 0 0 0 0 0 0 26 0 0 0 0 0 0 0 0 0 40 0 0 0 0 0 0 
		16 0 0 0 24 0 0 0 0 0 0 26 0 0 0 0 0 0 0 0 0 0 0 0 0 0 0 0 0 0 0 0 0 0 0 0 0 0 0 0 32 0 0 0 0 0 0 0 0 0 36 0 0 0 0 0 0 0 0 0 0 0 0 0 0 0 0 0 0 0 0 0 0 0 0 0 28 0 0 0 0 0 20 0 0 37 0 0 33 0 0 0 0 0 
		17 0 0 36 0 0 0 0 0 0 0 0 0 31 0 23 34 0 0 0 0 0 0 0 0 0 0 0 0 0 0 0 0 0 0 21 0 40 26 0 0 37 0 0 23 0 0 0 0 0 0 38 0 0 0 0 0 0 0 0 27 0 0 37 0 0 0 36 0 0 0 0 0 38 0 0 0 0 0 0 0 0 0 25 30 0 31 0 0 0 0 0 0 28 
		18 0 0 0 0 0 0 0 0 0 0 0 0 0 0 0 0 0 0 0 0 0 22 0 0 0 37 0 0 0 0 0 0 0 0 0 0 0 0 34 0 0 0 0 0 0 32 0 0 0 0 0 0 0 0 0 0 0 0 0 0 0 0 0 0 0 0 0 0 0 22 0 0 26 40 0 0 0 0 0 30 0 0 0 0 0 0 0 0 0 0 0 0 0 
		19 0 0 40 0 0 30 0 28 0 0 0 0 0 0 0 0 0 0 0 0 0 22 0 0 0 0 0 0 0 33 0 0 0 0 29 0 0 0 0 0 34 0 0 0 0 0 0 0 0 0 0 0 0 0 0 0 0 0 0 37 0 0 0 0 0 0 0 0 0 25 0 0 0 0 0 0 27 39 20 0 0 0 0 0 0 0 0 0 22 29 39 0 0 
		20 0 0 0 0 0 0 26 0 0 29 0 0 0 0 0 0 0 0 0 0 0 0 0 0 32 0 29 0 0 0 0 0 0 0 32 0 0 0 0 0 0 0 0 0 34 0 0 0 0 0 0 0 0 0 0 0 0 0 0 26 0 27 38 0 0 0 22 21 0 0 0 0 0 0 0 0 0 33 0 0 0 0 0 0 0 0 0 0 0 0 0 0 0 
		21 0 0 0 0 0 0 0 0 0 0 30 0 0 0 0 0 0 0 22 22 0 0 0 0 0 35 0 0 0 0 0 22 0 0 0 28 0 0 24 0 0 0 34 0 0 0 27 0 0 0 22 0 0 0 0 0 0 0 0 21 0 0 0 0 0 27 0 0 20 0 0 0 0 0 0 24 0 0 0 0 0 0 0 0 23 39 0 0 0 32 0 0 0 
		22 0 0 0 0 0 0 0 0 36 0 0 0 0 28 0 0 0 0 0 0 0 0 0 0 0 0 0 0 0 37 0 0 0 0 0 0 40 32 0 36 0 0 20 0 23 0 0 0 0 0 0 0 38 27 0 0 0 0 0 0 0 36 0 0 0 27 36 40 0 0 0 0 0 0 0 0 0 0 0 0 0 0 0 0 0 32 0 0 0 31 0 0 0 
		23 0 0 0 0 22 0 33 0 0 34 0 0 0 0 0 0 0 0 0 0 0 0 0 0 0 0 21 0 0 0 40 0 33 0 0 0 0 34 0 0 0 0 0 0 0 0 0 0 0 0 0 0 24 0 22 0 0 23 0 0 0 0 0 0 37 0 0 0 0 0 0 0 0 0 0 0 0 0 0 0 0 0 0 0 40 0 0 0 0 0 0 0 0 
		24 0 0 0 0 0 23 0 0 0 0 0 26 39 0 0 0 0 0 0 0 32 0 0 0 0 0 0 0 0 0 0 0 0 0 0 0 0 0 0 0 0 0 0 0 27 0 0 0 0 0 0 0 0 0 0 0 0 0 0 0 0 0 0 0 0 0 34 0 0 0 0 0 0 0 0 0 0 0 0 0 0 0 0 0 0 0 0 0 0 0 0 0 0 
		25 0 0 0 0 0 0 0 0 0 0 0 0 0 0 0 0 0 0 37 0 0 35 0 0 0 0 0 0 0 0 0 0 0 0 0 0 0 0 0 0 0 0 0 37 0 0 0 0 34 0 25 0 0 0 0 0 0 0 0 0 0 0 0 0 0 26 0 0 0 0 0 0 0 0 0 0 0 0 0 0 0 0 0 0 0 0 23 0 0 0 0 0 0 
		26 0 0 0 0 26 0 0 0 0 0 31 0 0 39 0 0 0 0 0 0 29 0 0 21 0 0 0 0 0 0 0 0 23 0 0 0 0 0 0 0 0 0 0 0 0 0 0 0 0 0 0 0 0 0 0 0 21 0 28 0 0 0 0 0 39 0 0 0 0 0 0 0 0 0 0 0 0 0 0 0 0 24 0 0 28 0 0 22 0 36 0 38 0 
		27 0 0 0 0 0 0 0 0 0 0 20 0 0 0 0 24 0 0 0 0 0 0 0 0 0 0 0 0 0 0 0 0 0 0 0 0 0 0 0 0 0 0 0 0 0 0 0 0 0 0 0 0 0 0 0 24 0 0 0 0 0 37 0 0 0 0 0 0 0 40 0 0 0 38 0 0 36 0 0 0 0 0 0 0 0 0 0 0 0 0 0 0 0 
		28 0 0 0 0 0 0 0 0 0 0 0 0 0 0 0 0 0 0 0 0 0 0 0 0 0 0 0 0 0 29 0 0 0 0 0 0 0 0 0 0 0 0 0 0 0 0 0 0 38 0 0 0 0 0 0 0 0 0 0 0 0 0 0 0 0 0 0 0 0 25 0 0 0 0 0 0 0 0 0 0 0 0 37 24 0 30 0 0 0 0 0 0 0 
		29 0 40 0 0 0 21 0 0 0 0 0 30 28 0 0 0 0 0 0 33 0 0 37 0 0 0 0 0 29 0 0 0 0 0 0 0 0 0 0 0 0 0 0 40 0 31 27 0 33 0 0 0 0 0 26 24 0 0 0 0 0 0 0 0 0 0 0 0 0 22 0 0 0 0 0 0 0 0 0 36 0 0 0 0 36 0 32 0 0 0 28 0 0 
		30 0 0 38 0 0 0 0 0 26 0 0 0 0 0 37 0 0 0 0 0 0 0 0 40 0 0 0 0 0 0 0 0 0 39 0 0 0 27 0 0 0 0 0 36 0 0 0 0 0 0 0 0 0 0 0 0 0 0 21 0 0 0 0 0 0 0 0 0 0 0 0 0 0 0 0 0 0 0 0 0 0 0 0 0 0 0 0 0 0 0 0 0 0 
		31 0 0 37 0 0 0 0 36 0 0 0 0 0 0 0 30 0 0 0 0 0 22 0 0 0 0 0 0 0 0 0 0 0 0 0 0 0 0 0 0 25 0 0 22 0 25 0 0 0 0 0 0 0 0 0 0 0 0 38 0 0 0 0 0 0 0 0 0 0 0 0 0 0 0 21 34 0 0 0 0 0 0 0 0 0 39 0 0 0 0 0 0 0 
		32 0 0 35 0 37 0 0 0 0 0 0 0 0 0 0 0 0 0 0 0 0 0 0 33 0 0 23 0 0 0 0 0 0 0 0 0 0 0 0 0 0 0 0 0 0 0 0 0 0 0 0 0 0 30 0 33 0 0 0 0 0 34 0 0 0 0 0 0 0 21 0 0 0 0 0 0 0 26 0 0 0 0 0 0 0 0 0 0 0 0 0 0 0 
		33 0 0 0 0 0 0 0 0 40 24 0 0 0 0 38 0 0 0 0 0 0 0 0 0 0 0 0 0 0 0 39 0 0 0 0 0 0 0 0 0 0 0 0 0 0 0 0 0 0 0 0 0 0 0 0 0 0 0 0 0 0 0 0 0 0 0 0 0 0 0 0 0 0 0 0 0 0 0 0 0 0 0 0 0 0 0 0 0 0 0 0 0 0 
		34 30 22 0 40 0 0 0 0 0 0 0 0 0 0 0 0 0 21 0 29 32 0 0 0 0 0 0 0 0 0 0 0 0 0 0 0 0 0 0 0 0 0 30 0 0 0 0 0 0 0 0 37 0 0 0 0 33 0 30 0 0 26 0 0 0 0 0 0 0 0 0 0 0 0 0 0 0 0 0 0 30 0 0 0 0 0 0 0 0 0 0 0 0 
		35 0 33 0 0 0 0 0 0 0 0 0 0 0 0 0 0 0 0 0 0 0 28 0 0 0 0 0 0 0 0 0 0 0 0 0 0 0 0 0 0 0 0 0 0 0 0 36 0 0 0 0 0 0 0 0 29 0 25 0 0 0 39 0 0 0 0 0 0 0 0 0 0 0 0 0 0 0 0 0 0 0 24 0 0 0 0 0 22 0 0 0 23 0 
		36 0 21 0 0 0 0 0 0 0 0 0 0 38 30 0 0 0 40 0 0 0 0 40 0 0 0 0 0 0 0 0 0 0 0 0 0 0 0 0 0 0 0 0 0 0 0 28 0 0 30 0 0 0 0 0 0 0 0 0 0 0 0 0 0 0 0 0 0 0 0 0 0 34 0 0 0 0 0 0 0 0 0 0 20 0 0 0 0 0 0 0 0 0 
		37 33 0 0 0 0 0 0 0 0 0 0 0 0 0 0 0 0 26 0 0 0 0 32 34 0 0 0 0 0 0 27 0 0 0 0 0 0 0 0 0 0 0 0 0 0 0 0 38 0 0 0 0 0 0 0 0 0 0 33 0 0 0 0 0 0 0 0 0 0 0 25 0 0 0 0 0 0 0 0 0 0 0 0 0 0 0 0 0 0 0 0 0 23 
		38 0 0 0 0 0 32 0 0 0 0 0 0 0 0 0 0 0 0 34 0 0 24 0 0 0 0 0 0 0 0 0 0 0 0 0 0 0 0 0 0 0 25 0 0 0 0 0 29 0 0 0 0 0 0 0 0 0 0 0 0 0 0 26 0 0 0 0 0 0 0 0 0 24 0 0 0 37 0 0 0 0 0 0 0 0 0 0 0 0 0 0 0 0 
		39 0 0 0 0 0 0 0 0 0 0 0 28 0 0 0 0 32 0 0 0 0 0 36 0 0 0 0 0 0 0 0 0 0 0 0 0 0 0 0 0 0 0 0 0 0 0 0 39 0 34 0 0 0 0 0 0 23 0 40 0 0 0 0 0 0 22 0 0 0 0 0 0 0 0 0 0 0 0 0 0 0 0 0 0 22 0 0 0 0 0 0 0 0 
		40 33 0 0 25 0 0 30 0 0 0 0 0 0 0 0 26 0 37 0 34 0 0 0 0 0 0 0 0 0 0 0 25 0 0 0 0 0 0 0 0 0 0 0 23 0 0 0 0 0 0 0 0 0 40 0 0 0 0 0 0 0 0 0 0 0 37 21 0 0 0 26 0 35 0 0 27 0 0 38 0 0 0 0 0 0 40 0 0 0 0 0 0 35 
		41 0 0 0 0 36 0 0 0 0 0 0 0 0 35 0 25 0 0 0 0 0 0 0 0 0 0 0 0 0 0 0 0 0 0 0 0 0 0 25 0 0 0 0 0 0 20 0 0 0 0 0 0 0 0 0 0 0 0 0 0 0 0 0 0 40 0 0 0 0 0 0 0 0 0 0 20 29 0 22 0 0 0 0 0 0 0 0 0 0 0 0 0 29 
		42 22 0 0 0 0 0 0 0 0 0 0 0 39 0 0 0 0 0 0 0 0 34 20 0 0 0 0 0 0 0 0 0 0 0 30 0 0 0 0 0 0 0 0 0 0 0 0 34 0 0 0 0 0 0 0 0 0 0 0 0 0 0 0 0 0 0 36 0 0 0 35 0 20 0 0 21 0 0 23 0 0 0 0 0 0 0 36 0 0 0 0 0 0 
		43 0 0 0 0 0 0 0 34 0 0 0 0 0 0 0 20 0 23 0 0 0 0 0 0 0 37 0 0 0 40 36 22 0 0 0 0 0 0 0 0 23 0 0 0 0 0 0 0 0 0 27 0 0 0 0 0 0 0 0 34 0 0 0 0 0 0 0 0 0 0 0 0 0 0 0 0 0 0 32 0 0 0 0 0 0 26 20 0 0 39 0 0 0 
		44 0 0 0 0 0 0 0 0 0 20 0 0 33 0 0 0 0 0 0 0 34 0 23 0 27 0 0 0 0 0 0 0 0 0 0 0 0 0 0 0 0 0 0 0 0 0 0 0 0 0 0 0 29 0 37 0 0 0 26 0 0 0 0 0 20 0 0 0 0 0 31 0 0 0 0 0 0 0 0 0 0 0 0 0 20 0 0 0 0 0 0 0 0 
		45 0 0 0 0 0 33 0 0 0 0 39 0 0 0 0 0 0 0 32 0 0 0 0 0 0 0 0 0 0 31 0 25 0 0 0 0 0 0 0 0 0 20 0 0 0 0 0 0 0 0 0 0 0 0 0 0 28 0 0 0 0 0 22 0 0 24 0 0 20 0 0 0 38 0 0 0 0 0 35 0 25 0 0 0 0 0 0 0 0 0 0 0 0 
		46 0 0 0 0 0 0 0 0 0 0 0 21 0 0 0 0 0 0 0 0 0 27 0 0 0 0 0 0 0 27 0 0 0 0 0 36 28 0 0 0 0 0 0 0 0 0 0 0 0 0 0 0 0 0 0 28 0 0 0 0 0 24 0 0 0 0 0 0 37 0 0 0 0 0 0 0 0 26 0 0 0 0 33 0 33 0 0 0 0 37 0 0 0 
		47 39 0 0 0 0 0 0 0 29 0 0 0 0 0 0 0 0 0 0 0 0 0 0 0 0 0 0 0 0 0 0 0 0 0 0 0 0 38 29 39 0 0 34 0 0 0 0 0 0 0 0 26 0 0 0 0 21 32 0 0 0 0 0 26 0 0 0 0 0 0 21 0 24 0 26 0 0 0 0 0 0 0 0 0 0 33 0 0 0 0 0 0 0 
		48 0 0 0 0 0 0 0 0 0 0 0 0 0 20 0 0 0 0 0 0 0 0 0 0 0 34 0 0 38 33 0 0 0 0 0 0 0 0 0 0 0 0 0 0 0 0 0 0 0 0 29 0 0 0 0 0 0 0 0 0 0 0 0 0 0 0 0 0 0 0 0 0 0 0 0 0 0 0 0 0 0 0 0 0 0 0 0 0 0 0 0 0 0 
		49 0 0 0 0 0 0 0 0 0 0 0 33 0 0 0 0 36 0 0 0 0 0 0 0 0 0 0 0 0 0 0 0 0 0 0 0 30 0 0 34 0 0 0 0 0 0 0 0 0 0 0 0 0 21 0 0 0 0 0 0 0 26 0 0 0 0 28 35 0 0 0 0 0 0 0 0 0 0 0 0 0 0 0 0 0 0 0 31 0 32 0 0 0 
		50 0 0 20 0 0 0 0 0 0 0 0 0 0 0 0 35 0 38 0 0 0 22 0 0 0 25 0 0 0 0 0 0 0 0 0 0 0 0 0 0 0 0 0 27 0 0 0 0 29 0 0 0 0 0 0 0 0 0 0 0 0 0 0 0 0 0 0 0 0 0 0 0 0 0 0 0 0 0 0 0 0 0 25 0 0 0 0 0 0 39 20 0 0 
		51 0 0 0 30 0 0 0 0 0 25 0 0 0 0 0 0 0 0 0 0 0 0 0 0 0 0 0 0 0 0 0 0 0 0 37 0 0 0 0 0 0 0 0 0 0 0 0 26 0 0 0 0 0 0 0 0 0 0 0 0 0 0 0 0 0 0 0 0 0 0 0 0 0 0 0 0 0 0 0 0 0 0 0 0 40 0 0 0 0 0 0 0 0 
		52 32 0 0 0 0 0 0 0 0 0 0 30 31 0 0 0 0 0 0 0 0 0 38 24 0 0 0 0 0 0 0 0 0 0 0 0 0 0 0 0 0 0 0 0 29 0 0 0 0 0 0 0 0 0 0 0 0 0 0 0 0 0 0 0 0 0 0 0 0 0 0 0 0 24 0 27 0 0 0 0 0 0 0 0 0 0 0 26 0 0 0 0 0 
		53 0 0 0 0 0 0 31 0 0 0 0 0 0 29 0 0 0 0 0 0 0 0 27 0 0 0 0 0 0 0 0 0 30 0 0 0 0 0 0 0 40 0 0 0 0 0 0 0 0 21 0 0 0 0 29 0 29 40 0 0 0 0 0 0 0 0 0 0 0 0 0 0 0 0 0 0 0 37 0 0 0 0 0 0 27 0 0 23 0 0 0 0 0 
		54 0 0 0 0 0 0 0 0 0 0 0 0 0 30 0 27 0 0 0 0 0 0 0 22 0 0 0 0 0 26 0 0 0 0 0 0 0 0 0 0 0 0 0 0 37 0 0 0 0 0 0 0 0 29 0 0 0 0 0 29 0 0 0 0 0 0 0 0 29 0 0 0 27 24 0 0 28 0 0 0 28 0 0 0 0 0 0 0 0 0 0 0 0 
		55 0 0 0 0 0 0 0 32 0 0 0 0 0 0 0 0 0 0 0 0 0 0 0 0 0 0 0 24 0 24 0 0 33 0 0 29 0 0 0 0 0 0 0 0 0 0 28 0 0 0 0 0 0 0 0 0 0 0 0 0 0 0 0 0 24 0 0 31 39 0 0 32 0 0 0 0 0 0 32 0 33 0 0 0 0 0 0 0 40 0 23 0 0 
		56 0 0 0 0 0 0 0 0 0 0 0 0 37 0 0 0 0 0 0 0 0 0 0 0 0 0 21 0 0 0 0 0 0 0 33 0 0 0 0 23 0 0 0 0 0 28 0 21 0 0 0 0 0 29 0 0 0 0 23 0 0 0 0 0 0 0 0 0 0 0 0 0 0 0 0 0 0 0 33 0 0 0 0 0 0 0 0 0 0 0 32 0 0 
		57 0 0 0 0 0 0 0 0 0 0 0 0 26 0 0 0 0 0 0 0 0 0 0 23 0 0 0 0 0 0 0 0 0 0 0 25 0 0 0 0 0 0 0 0 0 0 0 32 0 0 0 0 0 40 0 0 0 0 0 0 0 0 0 0 0 0 0 0 0 0 0 0 0 0 0 0 0 0 0 0 0 30 0 0 0 0 0 0 0 0 0 23 0 
		58 0 0 0 0 0 0 0 0 0 0 0 0 0 0 0 0 0 0 0 0 0 0 0 0 0 0 28 0 0 0 21 38 0 0 30 0 0 33 0 40 0 0 0 0 26 0 0 0 0 0 0 0 0 0 0 0 23 0 0 0 0 0 25 28 0 0 0 0 0 20 38 0 34 0 33 0 0 0 0 35 20 0 0 0 0 35 0 0 0 0 0 26 0 
		59 0 0 0 35 0 0 0 39 0 0 0 0 0 0 0 37 0 27 0 37 26 21 0 0 0 0 0 0 0 0 0 0 0 0 0 0 0 0 0 0 0 0 0 34 0 0 0 0 0 0 0 0 0 0 29 0 0 0 0 0 0 25 39 0 0 25 0 0 0 0 38 0 0 0 0 34 0 0 37 0 0 0 0 0 0 30 0 0 0 0 38 0 0 
		60 0 0 37 0 0 0 0 0 0 0 0 0 0 0 0 0 0 0 0 0 0 0 0 0 0 0 0 0 0 0 0 0 0 0 0 0 0 0 0 0 0 0 0 0 0 0 0 0 0 0 0 0 0 0 0 0 0 0 0 0 0 0 0 0 0 0 0 0 0 0 0 0 0 0 0 0 0 0 0 0 0 0 0 0 0 0 0 31 0 0 0 30 0 
		61 0 0 0 0 0 0 0 0 0 0 32 0 0 0 0 0 0 0 0 0 27 0 36 0 0 0 0 37 0 0 0 0 34 0 26 39 0 0 0 0 0 0 0 0 0 0 24 0 0 26 0 0 0 0 0 0 0 0 0 25 0 0 0 0 0 0 0 0 0 0 0 0 0 37 0 0 0 0 0 0 0 0 0 0 0 0 0 0 0 0 0 0 0 
		62 0 0 0 0 37 0 40 0 0 0 0 0 0 0 0 0 0 37 0 0 38 0 0 0 0 0 0 0 0 0 0 0 0 0 0 0 0 0 26 0 0 0 0 0 0 22 0 0 0 0 0 0 0 0 0 0 0 0 25 39 0 0 0 0 0 0 0 0 0 0 29 0 0 0 0 0 0 28 0 0 0 0 0 0 0 0 0 0 0 0 0 0 0 
		63 0 22 0 0 0 0 0 0 0 0 0 0 0 0 0 0 0 0 0 0 0 0 0 0 0 0 0 0 0 0 0 0 0 0 0 0 0 0 0 0 0 0 0 0 0 0 0 26 0 0 0 0 0 0 0 0 0 0 28 0 0 0 0 0 0 0 37 0 0 0 0 0 0 0 0 0 0 0 0 0 0 0 0 0 0 0 0 0 25 0 0 0 36 
		64 0 0 0 0 0 30 0 0 0 0 0 0 0 0 0 0 0 0 0 0 0 0 0 37 0 0 39 0 0 0 0 0 0 0 0 0 0 0 0 0 0 40 0 0 20 0 0 0 0 0 0 0 0 0 0 24 0 0 0 0 0 0 0 0 0 0 0 0 0 0 0 0 0 0 0 0 0 0 0 0 0 37 0 0 0 31 0 0 0 22 0 28 0 
		65 0 0 0 0 0 0 0 0 0 25 0 0 0 0 0 0 0 0 0 0 0 27 27 0 0 26 0 0 0 0 0 0 0 0 0 0 0 0 0 22 37 0 0 0 0 24 0 0 0 0 0 0 0 0 0 0 0 0 0 25 0 0 0 0 0 0 0 0 0 0 0 0 0 0 0 0 0 0 0 0 38 40 0 0 0 39 0 0 0 0 0 0 0 
		66 0 0 31 0 0 36 0 0 0 0 0 0 0 0 0 20 0 36 0 0 22 0 36 0 34 0 0 0 0 0 0 0 0 0 0 0 0 0 0 0 21 0 36 0 0 0 0 0 0 28 0 0 0 0 0 0 0 0 0 0 0 0 0 37 0 0 0 0 0 0 0 0 0 0 28 0 0 0 0 0 21 0 0 0 0 0 22 0 0 0 0 0 0 
		67 0 0 0 0 0 0 0 0 0 0 0 34 23 0 0 25 0 0 0 0 21 0 40 0 0 0 0 0 0 0 0 0 0 0 0 0 0 0 0 0 0 0 0 0 0 0 0 0 0 35 0 0 0 0 0 31 0 0 0 0 0 0 0 0 0 0 0 0 0 0 0 0 27 0 0 30 0 0 0 0 0 0 0 23 0 0 0 0 0 40 0 35 0 
		68 0 0 0 0 0 21 0 0 30 0 0 0 21 0 0 0 0 0 0 0 0 20 0 0 0 0 0 0 0 0 0 0 0 0 0 0 0 0 0 0 0 0 0 0 0 20 37 0 0 0 0 0 0 0 29 39 0 0 0 0 0 0 0 0 0 0 0 0 0 0 0 0 0 0 0 0 0 0 35 26 0 0 0 0 0 0 0 0 0 0 0 0 0 
		69 0 34 0 0 0 0 0 0 0 0 35 0 0 0 0 0 0 0 22 25 0 0 0 0 0 0 0 40 25 22 0 0 21 0 0 0 0 0 0 0 0 0 0 0 0 0 0 0 0 0 0 0 0 0 0 0 0 0 20 0 0 0 0 0 0 0 0 0 0 0 0 0 23 0 0 0 0 0 0 0 0 0 0 0 0 0 0 0 0 0 0 0 0 
		70 0 0 0 0 0 0 0 0 0 0 0 0 0 29 0 0 0 0 0 0 0 0 0 0 0 0 0 0 0 0 0 0 0 0 0 0 0 25 0 0 26 0 35 0 31 0 0 21 0 0 0 0 0 0 0 0 0 0 38 38 0 0 29 0 0 0 0 0 0 0 0 0 0 0 0 0 0 0 0 0 0 0 0 0 0 0 40 0 0 0 31 0 0 
		71 0 0 0 0 0 0 0 0 0 0 0 0 0 24 0 0 0 0 0 0 0 0 0 0 0 0 0 0 0 0 0 0 0 0 0 0 0 0 0 0 0 0 0 0 0 0 0 0 0 0 0 0 0 0 0 32 0 0 0 0 0 0 0 0 0 0 0 0 0 0 0 0 0 0 0 0 0 0 0 0 0 0 23 0 0 0 0 0 0 0 0 0 0 
		72 0 0 31 0 0 27 0 0 0 0 0 0 0 0 0 0 0 38 26 0 0 0 0 0 0 0 0 0 0 0 0 0 0 0 0 0 34 0 24 0 35 0 20 0 0 38 0 24 0 0 0 0 0 0 27 0 0 0 34 0 0 0 0 0 0 0 0 27 0 23 0 0 0 25 0 32 0 32 0 0 0 0 0 0 0 0 29 0 0 0 40 0 31 
		73 0 0 0 0 0 0 0 0 0 0 40 0 0 0 0 0 0 0 40 0 0 0 0 0 0 0 0 38 0 0 0 0 0 0 0 0 0 0 0 0 0 0 0 0 0 0 0 0 0 0 0 0 24 0 24 0 0 0 0 0 0 37 0 0 0 0 0 0 0 0 0 0 25 0 0 0 0 0 0 29 0 0 37 0 0 0 0 0 0 0 0 0 0 
		74 34 0 0 0 0 0 0 0 0 0 0 0 0 0 0 0 0 0 0 0 0 0 0 0 0 0 0 0 0 0 0 21 0 0 0 0 0 0 0 0 0 0 0 0 0 0 0 26 0 0 0 0 0 0 0 0 0 0 33 0 0 0 0 0 0 0 28 0 0 0 0 0 0 0 0 0 27 0 0 0 0 0 0 0 0 0 0 0 0 0 0 0 0 
		75 22 0 0 0 0 0 0 21 0 0 0 0 30 0 0 0 28 0 0 0 0 24 0 0 0 0 0 0 0 0 0 34 0 0 0 0 0 0 0 0 27 20 21 0 0 0 0 0 0 0 0 0 27 0 0 0 0 0 0 34 0 0 0 0 0 0 0 30 0 0 0 0 32 0 0 0 22 38 0 0 0 0 0 0 0 0 0 0 0 0 0 0 0 
		76 0 38 29 0 0 29 0 0 0 0 0 0 0 0 0 26 0 0 0 27 0 0 0 0 0 0 0 36 0 0 0 0 0 0 0 0 0 0 37 0 0 29 0 0 0 0 0 0 0 0 0 0 0 0 28 0 0 0 0 0 0 0 0 0 0 0 0 0 0 0 0 0 0 0 27 22 0 31 0 0 0 0 0 0 0 0 0 0 27 0 0 0 35 
		77 0 0 0 0 0 0 0 0 0 0 0 0 0 0 0 0 0 0 0 39 33 0 0 0 0 0 0 0 0 0 0 0 26 0 0 0 0 0 0 0 0 0 0 0 0 0 26 0 0 0 0 0 0 37 0 0 0 0 0 0 0 0 28 0 0 0 0 0 0 0 0 0 32 0 0 38 31 0 0 0 0 0 0 0 0 0 0 0 0 24 34 0 0 
		78 28 0 27 0 0 0 0 0 0 0 0 0 37 0 0 0 0 0 0 20 0 0 0 0 0 0 0 0 0 0 0 0 0 0 0 0 0 0 0 0 38 22 23 32 0 35 0 0 0 0 0 0 0 0 0 32 33 0 0 37 0 0 0 0 0 0 0 0 35 0 0 0 0 0 0 0 0 0 0 0 0 0 0 0 25 25 0 0 0 0 30 0 0 
		79 0 0 0 0 0 0 0 0 0 0 22 0 0 0 0 0 0 0 30 0 0 0 0 0 0 0 0 0 0 36 0 0 0 0 0 0 0 0 0 0 0 0 0 0 0 0 0 0 0 0 0 0 0 0 0 0 0 0 35 0 0 0 0 0 0 0 0 0 26 0 0 0 0 29 0 0 0 0 0 0 0 0 0 0 0 0 0 0 0 0 0 0 0 
		80 0 0 0 0 0 0 0 0 0 28 37 0 0 0 0 0 0 0 0 0 0 0 0 0 0 0 0 0 0 0 0 0 0 0 30 0 0 0 0 0 0 0 0 0 0 25 0 0 0 0 0 0 0 0 28 33 0 0 20 0 0 0 0 0 0 38 21 0 0 0 0 0 0 0 0 0 0 0 0 0 0 0 26 0 0 0 0 0 0 33 0 20 0 
		81 0 36 0 0 0 0 0 0 0 31 0 0 0 0 0 0 20 0 0 0 0 0 0 0 0 0 24 0 0 0 0 0 0 0 0 24 0 0 0 0 0 0 0 0 0 0 0 0 0 0 0 0 0 0 0 0 0 30 0 0 0 0 0 0 37 40 0 0 0 0 0 0 0 0 0 0 0 0 0 0 0 0 0 24 0 0 0 0 0 0 0 0 0 
		82 0 0 0 0 0 23 0 0 0 0 36 0 0 0 0 0 0 25 0 0 0 0 0 0 0 0 0 0 37 0 0 0 0 0 0 0 0 0 0 0 0 0 0 0 0 0 33 0 0 0 25 0 0 0 0 0 0 0 0 0 0 0 0 0 0 0 0 0 0 0 0 23 0 37 0 0 0 0 0 0 26 0 0 0 0 0 24 0 0 0 0 0 0 
		83 24 0 0 30 26 0 0 0 0 0 0 0 0 0 0 0 0 30 0 0 0 0 0 0 0 0 0 0 24 0 0 0 0 0 0 0 20 0 0 0 0 0 0 0 0 0 0 0 0 0 0 0 0 0 0 0 0 0 0 0 0 0 0 0 0 0 0 23 0 0 0 0 0 0 0 0 0 0 0 0 0 24 0 0 0 38 0 0 0 0 0 33 0 
		84 0 0 0 0 0 0 0 0 0 36 0 0 0 0 0 0 37 0 0 0 0 23 0 40 0 0 28 0 0 36 0 0 0 0 0 0 0 0 0 22 0 0 0 0 20 0 33 0 0 0 0 40 0 27 0 0 0 0 0 0 0 0 0 0 0 0 0 0 0 0 0 0 0 0 0 0 0 0 25 0 0 0 0 0 0 0 0 36 0 0 0 0 0 
		85 0 37 0 0 0 0 0 0 0 0 0 0 0 36 0 0 0 31 0 0 0 39 32 0 0 0 0 0 30 0 0 39 0 0 0 0 0 0 0 0 40 0 0 26 0 0 0 33 0 0 0 0 0 0 0 0 0 0 35 30 0 0 0 0 31 39 0 0 0 0 0 0 0 0 0 0 0 0 25 0 0 0 0 38 0 0 0 0 0 0 0 0 26 
		86 0 0 0 0 0 0 0 0 0 0 0 0 0 0 0 40 0 0 0 0 0 0 0 0 0 23 0 0 0 32 0 0 0 0 0 0 0 0 0 0 0 0 36 20 0 0 0 0 0 0 0 0 0 0 0 0 0 0 0 0 0 0 0 0 0 0 22 0 0 0 40 0 29 0 0 0 0 0 0 0 0 0 24 0 0 0 0 0 0 0 22 0 0 
		87 0 0 0 0 0 0 25 0 0 36 0 0 0 0 0 0 33 0 0 0 0 0 0 0 0 0 22 0 0 0 0 0 0 0 0 22 0 0 0 0 0 0 0 0 0 0 0 0 0 31 0 0 26 23 0 0 0 0 0 0 31 0 0 0 0 0 0 0 0 0 0 0 0 0 0 0 0 0 0 0 0 0 0 0 36 0 0 0 0 0 0 36 0 
		88 0 0 0 0 0 0 0 25 0 39 0 0 0 0 0 0 0 0 0 22 0 0 0 0 0 0 0 0 0 0 0 0 0 0 0 0 0 0 0 0 0 0 0 0 0 0 0 0 0 0 0 0 0 0 0 40 0 0 0 0 0 0 0 25 0 0 0 0 0 0 0 0 0 0 0 0 27 0 0 0 0 0 0 0 0 0 0 0 0 0 34 0 0 
		89 0 0 0 0 21 0 0 0 0 0 28 0 0 37 0 0 0 0 0 29 0 32 31 0 0 0 36 0 0 0 0 0 0 0 0 0 0 0 0 0 0 0 0 39 0 0 37 0 0 32 39 0 0 0 0 0 0 0 0 0 0 0 0 0 22 0 0 40 0 0 0 0 0 0 0 0 0 24 0 0 33 0 0 0 0 0 0 0 0 0 0 40 0 
		90 0 0 0 0 0 0 0 0 0 0 28 0 0 0 0 0 0 0 0 39 0 0 0 0 0 0 0 0 0 28 0 0 0 0 0 0 0 0 0 0 0 0 0 0 0 0 0 0 0 0 20 0 0 0 0 23 32 0 0 38 0 0 0 0 0 0 0 0 0 0 31 0 40 0 0 0 0 34 30 0 0 0 0 0 0 0 22 0 34 0 0 0 0 
		91 0 0 0 0 28 0 22 0 0 0 0 0 0 0 0 0 0 0 0 0 0 0 0 0 0 0 38 0 0 0 0 0 0 0 0 23 0 0 0 0 0 0 0 0 0 0 0 0 0 0 0 0 0 0 0 0 0 23 26 0 30 0 0 0 28 0 0 35 0 0 0 0 0 0 0 0 0 0 0 0 20 0 0 33 0 0 0 36 0 40 0 0 0 
		92 0 0 0 0 0 0 0 0 0 0 0 0 0 0 0 0 0 28 0 0 0 0 0 0 0 0 0 0 0 0 0 0 0 0 0 0 0 23 0 0 35 29 0 0 0 0 0 0 0 0 0 0 0 0 0 0 0 0 0 0 0 0 0 36 0 0 0 0 0 0 0 0 31 0 0 0 35 0 0 0 0 0 0 0 0 26 0 0 0 0 0 0 0 
;
